p tw 24 146
0 1
0 2
0 6
0 7
0 8
0 10
0 19
0 13
0 18
0 11
0 12
0 20
0 5
0 22
0 17
0 16
1 2
1 8
1 14
1 15
1 17
1 19
1 13
1 6
1 16
1 5
1 7
1 11
2 4
2 10
2 9
2 19
2 22
2 7
2 13
2 8
2 20
2 21
2 5
3 4
3 5
3 7
3 14
3 10
3 17
3 21
3 13
4 5
4 10
4 9
4 19
4 7
4 14
4 8
4 20
4 12
5 19
5 12
5 20
5 13
5 11
5 22
5 14
5 23
5 17
6 7
6 18
6 19
6 8
6 10
6 9
6 17
6 12
6 23
6 16
6 21
7 14
7 8
7 16
7 13
7 9
7 23
7 19
8 9
8 10
8 14
8 15
8 16
8 20
8 17
8 21
8 12
8 13
9 10
9 12
9 19
9 15
9 16
9 22
9 17
9 14
9 23
9 20
9 18
9 21
10 14
10 15
10 16
10 12
11 12
11 13
11 16
11 17
11 22
11 18
11 19
12 13
12 19
12 20
12 23
12 17
12 15
12 16
13 21
13 18
13 17
13 19
13 23
14 20
14 21
15 16
15 19
15 23
16 17
16 18
17 21
17 19
17 18
17 23
18 19
18 21
18 23
19 22
19 23
19 21
20 21
